; DUP4 DUP3 SWAP1 => DUP2 DUP5
(set-option :produce-proofs true)
; 
(set-info :status unknown)
(declare-fun storage_t ((_ BitVec 256) (_ BitVec 256) (_ BitVec 256) (_ BitVec 256) Int (_ BitVec 256)) (_ BitVec 256))
(declare-fun storage_s ((_ BitVec 256) (_ BitVec 256) (_ BitVec 256) (_ BitVec 256) Int (_ BitVec 256)) (_ BitVec 256))
(declare-fun exc_halt_t (Int) Bool)
(declare-fun exc_halt_s (Int) Bool)
(declare-fun sc_t (Int) (_ BitVec 6))
(declare-fun stack_t ((_ BitVec 256) (_ BitVec 256) (_ BitVec 256) (_ BitVec 256) Int (_ BitVec 6)) (_ BitVec 256))
(declare-fun stack_s ((_ BitVec 256) (_ BitVec 256) (_ BitVec 256) (_ BitVec 256) Int (_ BitVec 6)) (_ BitVec 256))
(declare-fun sc_s (Int) (_ BitVec 6))
(declare-fun used_gas_t ((_ BitVec 256) (_ BitVec 256) (_ BitVec 256) (_ BitVec 256) Int) Int)
(declare-fun used_gas_s ((_ BitVec 256) (_ BitVec 256) (_ BitVec 256) (_ BitVec 256) Int) Int)
(assert
 (exists ((x_0 (_ BitVec 256)) (x_1 (_ BitVec 256)) (x_2 (_ BitVec 256)) (x_3 (_ BitVec 256)) )(let (($x9986 (forall ((w (_ BitVec 256)) )(let ((?x7844 (storage_t x_0 x_1 x_2 x_3 2 w)))
 (let ((?x2433 (storage_s x_0 x_1 x_2 x_3 3 w)))
 (= ?x2433 ?x7844))))
 ))
 (let (($x3071 (exc_halt_t 2)))
 (let (($x292 (exc_halt_s 3)))
 (let (($x4400 (= $x292 $x3071)))
 (let (($x11305 (forall ((n (_ BitVec 6)) )(let ((?x2714 (sc_t 2)))
 (let (($x9122 (bvsle ?x2714 n)))
 (let ((?x4185 (stack_t x_0 x_1 x_2 x_3 2 n)))
 (let ((?x8580 (stack_s x_0 x_1 x_2 x_3 3 n)))
 (let (($x5669 (= ?x8580 ?x4185)))
 (or $x5669 $x9122)))))))
 ))
 (let ((?x2714 (sc_t 2)))
 (let ((?x275 (sc_s 3)))
 (let (($x9503 (= ?x275 ?x2714)))
 (let ((?x1685 (used_gas_t x_0 x_1 x_2 x_3 0)))
 (let ((?x9695 (used_gas_s x_0 x_1 x_2 x_3 0)))
 (let (($x8095 (= ?x9695 ?x1685)))
 (let (($x160 (forall ((w (_ BitVec 256)) )(let ((?x11255 (storage_t x_0 x_1 x_2 x_3 0 w)))
 (let ((?x6462 (storage_s x_0 x_1 x_2 x_3 0 w)))
 (= ?x6462 ?x11255))))
 ))
 (let (($x56 (exc_halt_t 0)))
 (let (($x57 (exc_halt_s 0)))
 (let (($x58 (= $x57 $x56)))
 (let (($x8849 (forall ((n (_ BitVec 6)) )(let ((?x6817 (stack_t x_0 x_1 x_2 x_3 0 n)))
 (let ((?x7846 (stack_s x_0 x_1 x_2 x_3 0 n)))
 (let (($x3054 (= ?x7846 ?x6817)))
 (let ((?x63 (sc_t 0)))
 (let (($x2525 (bvsle ?x63 n)))
 (or $x2525 $x3054)))))))
 ))
 (let ((?x63 (sc_t 0)))
 (let ((?x72 (sc_s 0)))
 (let (($x73 (= ?x72 ?x63)))
 (let (($x9219 (not (= ((_ extract 6 6) (bvadd (_ bv1 7) (concat (_ bv0 1) (sc_t 1)))) (_ bv0 1)))))
 (let (($x3508 (exc_halt_t 1)))
 (let (($x3520 (forall ((w (_ BitVec 256)) )(let ((?x4538 (storage_t x_0 x_1 x_2 x_3 1 w)))
 (let ((?x7844 (storage_t x_0 x_1 x_2 x_3 2 w)))
 (= ?x7844 ?x4538))))
 ))
 (let (($x3675 (forall ((n (_ BitVec 6)) )(let ((?x2703 (stack_t x_0 x_1 x_2 x_3 1 n)))
 (let ((?x4185 (stack_t x_0 x_1 x_2 x_3 2 n)))
 (or (= ?x4185 ?x2703) (bvsle (bvadd (_ bv59 6) (sc_t 1)) n)))))
 ))
 (let (($x1996 (= ?x2714 (bvadd (_ bv1 6) (sc_t 1)))))
 (let (($x2464 (= (used_gas_t x_0 x_1 x_2 x_3 2) (+ 3 (used_gas_t x_0 x_1 x_2 x_3 1)))))
 (let ((?x8347 (sc_t 1)))
 (let ((?x9429 (bvadd (_ bv63 6) ?x8347)))
 (let ((?x8929 (stack_t x_0 x_1 x_2 x_3 1 ?x9429)))
 (let (($x5586 (= (stack_t x_0 x_1 x_2 x_3 2 (bvadd (_ bv62 6) ?x8347)) (stack_t x_0 x_1 x_2 x_3 1 (bvadd (_ bv62 6) ?x8347)))))
 (let (($x1743 (= (stack_t x_0 x_1 x_2 x_3 2 (bvadd (_ bv61 6) ?x8347)) (stack_t x_0 x_1 x_2 x_3 1 (bvadd (_ bv61 6) ?x8347)))))
 (let (($x10393 (= (stack_t x_0 x_1 x_2 x_3 2 (bvadd (_ bv60 6) ?x8347)) (stack_t x_0 x_1 x_2 x_3 1 (bvadd (_ bv60 6) ?x8347)))))
 (let ((?x1465 (bvadd (_ bv59 6) ?x8347)))
 (let ((?x6990 (stack_t x_0 x_1 x_2 x_3 1 ?x1465)))
 (let (($x3887 (not (= ((_ extract 6 6) (bvadd (_ bv1 7) (concat (_ bv0 1) ?x63))) (_ bv0 1)))))
 (let (($x2759 (not (bvsle (_ bv0 6) (bvadd (_ bv62 6) ?x63)))))
 (let (($x6586 (= $x3508 (or $x56 $x2759 $x3887))))
 (let (($x7167 (forall ((w (_ BitVec 256)) )(let ((?x11255 (storage_t x_0 x_1 x_2 x_3 0 w)))
 (let ((?x4538 (storage_t x_0 x_1 x_2 x_3 1 w)))
 (= ?x4538 ?x11255))))
 ))
 (let (($x636 (forall ((n (_ BitVec 6)) )(let ((?x63 (sc_t 0)))
 (let ((?x8027 (bvadd (_ bv62 6) ?x63)))
 (let (($x11443 (bvsle ?x8027 n)))
 (let ((?x6817 (stack_t x_0 x_1 x_2 x_3 0 n)))
 (let ((?x2703 (stack_t x_0 x_1 x_2 x_3 1 n)))
 (or (= ?x2703 ?x6817) $x11443)))))))
 ))
 (let (($x5258 (= ?x8347 (bvadd (_ bv1 6) ?x63))))
 (let (($x2722 (= (stack_t x_0 x_1 x_2 x_3 1 (bvadd (_ bv63 6) ?x63)) (stack_t x_0 x_1 x_2 x_3 0 (bvadd (_ bv63 6) ?x63)))))
 (let ((?x8027 (bvadd (_ bv62 6) ?x63)))
 (let ((?x6006 (stack_t x_0 x_1 x_2 x_3 0 ?x8027)))
 (let (($x5298 (= $x292 (or (exc_halt_s 2) (not (bvsle (_ bv0 6) (bvadd (_ bv62 6) (sc_s 2))))))))
 (let (($x4397 (forall ((w (_ BitVec 256)) )(let ((?x7054 (storage_s x_0 x_1 x_2 x_3 2 w)))
 (let ((?x2433 (storage_s x_0 x_1 x_2 x_3 3 w)))
 (= ?x2433 ?x7054))))
 ))
 (let (($x2150 (forall ((n (_ BitVec 6)) )(let ((?x6860 (stack_s x_0 x_1 x_2 x_3 2 n)))
 (let ((?x8580 (stack_s x_0 x_1 x_2 x_3 3 n)))
 (let ((?x218 (sc_s 2)))
 (let ((?x5210 (bvadd (_ bv62 6) ?x218)))
 (let (($x2138 (bvsle ?x5210 n)))
 (or $x2138 (= ?x8580 ?x6860))))))))
 ))
 (let ((?x218 (sc_s 2)))
 (let (($x7762 (= ?x275 ?x218)))
 (let (($x8152 (= (used_gas_s x_0 x_1 x_2 x_3 3) (+ 3 (used_gas_s x_0 x_1 x_2 x_3 2)))))
 (let ((?x5784 (bvadd (_ bv63 6) ?x218)))
 (let ((?x4988 (stack_s x_0 x_1 x_2 x_3 2 ?x5784)))
 (let (($x9552 (= (stack_s x_0 x_1 x_2 x_3 3 (bvadd (_ bv63 6) ?x275)) (stack_s x_0 x_1 x_2 x_3 2 (bvadd (_ bv62 6) ?x218)))))
 (let (($x7098 (not (= ((_ extract 6 6) (bvadd (_ bv1 7) (concat (_ bv0 1) (sc_s 1)))) (_ bv0 1)))))
 (let (($x189 (exc_halt_s 1)))
 (let (($x247 (exc_halt_s 2)))
 (let (($x551 (forall ((w (_ BitVec 256)) )(let ((?x6983 (storage_s x_0 x_1 x_2 x_3 1 w)))
 (let ((?x7054 (storage_s x_0 x_1 x_2 x_3 2 w)))
 (= ?x7054 ?x6983))))
 ))
 (let (($x3727 (forall ((n (_ BitVec 6)) )(let ((?x8409 (stack_s x_0 x_1 x_2 x_3 1 n)))
 (let ((?x6860 (stack_s x_0 x_1 x_2 x_3 2 n)))
 (or (= ?x6860 ?x8409) (bvsle (bvadd (_ bv61 6) (sc_s 1)) n)))))
 ))
 (let (($x4974 (= ?x218 (bvadd (_ bv1 6) (sc_s 1)))))
 (let ((?x3793 (used_gas_s x_0 x_1 x_2 x_3 2)))
 (let ((?x154 (sc_s 1)))
 (let ((?x5786 (bvadd (_ bv63 6) ?x154)))
 (let ((?x5457 (stack_s x_0 x_1 x_2 x_3 1 ?x5786)))
 (let (($x9080 (= (stack_s x_0 x_1 x_2 x_3 2 (bvadd (_ bv62 6) ?x154)) (stack_s x_0 x_1 x_2 x_3 1 (bvadd (_ bv62 6) ?x154)))))
 (let ((?x8717 (bvadd (_ bv61 6) ?x154)))
 (let ((?x2550 (stack_s x_0 x_1 x_2 x_3 1 ?x8717)))
 (let (($x9897 (not (= ((_ extract 6 6) (bvadd (_ bv1 7) (concat (_ bv0 1) ?x72))) (_ bv0 1)))))
 (let (($x2562 (forall ((w (_ BitVec 256)) )(let ((?x6462 (storage_s x_0 x_1 x_2 x_3 0 w)))
 (let ((?x6983 (storage_s x_0 x_1 x_2 x_3 1 w)))
 (= ?x6983 ?x6462))))
 ))
 (let (($x3389 (forall ((n (_ BitVec 6)) )(let ((?x7846 (stack_s x_0 x_1 x_2 x_3 0 n)))
 (let ((?x8409 (stack_s x_0 x_1 x_2 x_3 1 n)))
 (or (bvsle (bvadd (_ bv60 6) (sc_s 0)) n) (= ?x8409 ?x7846)))))
 ))
 (let (($x10097 (= ?x154 (bvadd (_ bv1 6) ?x72))))
 (let (($x9262 (= (stack_s x_0 x_1 x_2 x_3 1 (bvadd (_ bv63 6) ?x72)) (stack_s x_0 x_1 x_2 x_3 0 (bvadd (_ bv63 6) ?x72)))))
 (let (($x442 (= (stack_s x_0 x_1 x_2 x_3 1 (bvadd (_ bv62 6) ?x72)) (stack_s x_0 x_1 x_2 x_3 0 (bvadd (_ bv62 6) ?x72)))))
 (let (($x4835 (= (stack_s x_0 x_1 x_2 x_3 1 (bvadd (_ bv61 6) ?x72)) (stack_s x_0 x_1 x_2 x_3 0 (bvadd (_ bv61 6) ?x72)))))
 (let ((?x1914 (bvadd (_ bv60 6) ?x72)))
 (let ((?x2007 (stack_s x_0 x_1 x_2 x_3 0 ?x1914)))
 (let (($x3843 (forall ((w (_ BitVec 256)) )(let ((?x6462 (storage_s x_0 x_1 x_2 x_3 0 w)))
 (= ?x6462 (_ bv0 256))))
 ))
 (let (($x8197 (= ?x9695 0)))
 (let (($x4511 (not $x57)))
 (let (($x9099 (= (stack_s x_0 x_1 x_2 x_3 0 (_ bv3 6)) x_3)))
 (let (($x4299 (= (stack_s x_0 x_1 x_2 x_3 0 (_ bv2 6)) x_2)))
 (let (($x9254 (= (stack_s x_0 x_1 x_2 x_3 0 (_ bv1 6)) x_1)))
 (let (($x6914 (= (stack_s x_0 x_1 x_2 x_3 0 (_ bv0 6)) x_0)))
 (let (($x289 (= ?x72 (_ bv4 6))))
 (and $x289 $x6914 $x9254 $x4299 $x9099 $x4511 $x8197 $x3843 (= ?x5457 ?x2007) (= (stack_s x_0 x_1 x_2 x_3 1 ?x1914) ?x2007) $x4835 $x442 $x9262 (= (used_gas_s x_0 x_1 x_2 x_3 1) (+ 3 ?x9695)) $x10097 $x3389 $x2562 (= $x189 (or $x57 (not (bvsle (_ bv0 6) ?x1914)) $x9897)) (= ?x4988 ?x2550) (= (stack_s x_0 x_1 x_2 x_3 2 ?x8717) ?x2550) $x9080 (= (stack_s x_0 x_1 x_2 x_3 2 ?x5786) ?x5457) (= ?x3793 (+ 3 (used_gas_s x_0 x_1 x_2 x_3 1))) $x4974 $x3727 $x551 (= $x247 (or $x189 (not (bvsle (_ bv0 6) ?x8717)) $x7098)) $x9552 (= (stack_s x_0 x_1 x_2 x_3 3 (bvadd (_ bv62 6) ?x275)) ?x4988) $x8152 $x7762 $x2150 $x4397 $x5298 (= ?x8929 ?x6006) (= (stack_t x_0 x_1 x_2 x_3 1 ?x8027) ?x6006) $x2722 (= (used_gas_t x_0 x_1 x_2 x_3 1) (+ 3 ?x1685)) $x5258 $x636 $x7167 $x6586 (= (stack_t x_0 x_1 x_2 x_3 2 (bvadd (_ bv63 6) ?x2714)) ?x6990) (= (stack_t x_0 x_1 x_2 x_3 2 ?x1465) ?x6990) $x10393 $x1743 $x5586 (= (stack_t x_0 x_1 x_2 x_3 2 ?x9429) ?x8929) $x2464 $x1996 $x3675 $x3520 (= $x3071 (or $x3508 (not (bvsle (_ bv0 6) ?x1465)) $x9219)) $x73 $x8849 $x58 $x160 $x8095 (not (and $x9503 $x11305 $x4400 $x9986)))))))))))))))))))))))))))))))))))))))))))))))))))))))))))))))))))))))))))))))))))))
 )
(check-sat)
(get-proof)
